tier3-numpy/artifacts/clique_cover/kstar_n4_set_cover.mps
NAME        
ROWS
 N  Obj     
 G  r0      
 G  r1      
 G  r2      
 G  r3      
 G  r4      
 G  r5      
 G  r6      
 G  r7      
 G  r8      
 G  r9      
 G  r10     
 G  r11     
 G  r12     
 G  r13     
 G  r14     
 G  r15     
 G  r16     
 G  r17     
 G  r18     
 G  r19     
 G  r20     
 G  r21     
 G  r22     
 G  r23     
 G  r24     
 G  r25     
 G  r26     
 G  r27     
 G  r28     
 G  r29     
 G  r30     
 G  r31     
 G  r32     
 G  r33     
 G  r34     
 G  r35     
 G  r36     
 G  r37     
 G  r38     
 G  r39     
 G  r40     
 G  r41     
 G  r42     
 G  r43     
 G  r44     
 G  r45     
 G  r46     
 G  r47     
 G  r48     
 G  r49     
 G  r50     
 G  r51     
 G  r52     
 G  r53     
 G  r54     
 G  r55     
 G  r56     
 G  r57     
 G  r58     
 G  r59     
 G  r60     
 G  r61     
 G  r62     
 G  r63     
 G  r64     
 G  r65     
 G  r66     
 G  r67     
 G  r68     
 G  r69     
 G  r70     
 G  r71     
 G  r72     
 G  r73     
 G  r74     
 G  r75     
 G  r76     
 G  r77     
 G  r78     
 G  r79     
 G  r80     
 G  r81     
 G  r82     
 G  r83     
 G  r84     
 G  r85     
 G  r86     
 G  r87     
 G  r88     
 G  r89     
 G  r90     
 G  r91     
 G  r92     
 G  r93     
 G  r94     
 G  r95     
 G  r96     
 G  r97     
 G  r98     
 G  r99     
 G  r100    
 G  r101    
 G  r102    
 G  r103    
 G  r104    
 G  r105    
 G  r106    
 G  r107    
 G  r108    
 G  r109    
 G  r110    
 G  r111    
 G  r112    
 G  r113    
 G  r114    
 G  r115    
 G  r116    
 G  r117    
 G  r118    
 G  r119    
 G  r120    
 G  r121    
 G  r122    
 G  r123    
 G  r124    
 G  r125    
 G  r126    
 G  r127    
 G  r128    
 G  r129    
 G  r130    
 G  r131    
 G  r132    
 G  r133    
 G  r134    
 G  r135    
 G  r136    
COLUMNS
    MARK0000  'MARKER'                 'INTORG'
    c0        Obj       1
    c0        r0        1
    c0        r1        1
    c0        r4        1
    c0        r5        1
    c0        r16       1
    c0        r17       1
    c0        r20       1
    c0        r21       1
    c0        r64       1
    c0        r65       1
    c0        r68       1
    c0        r69       1
    c0        r78       1
    c0        r79       1
    c0        r80       1
    c0        r81       1
    c1        Obj       1
    c1        r0        1
    c1        r2        1
    c1        r4        1
    c1        r6        1
    c1        r16       1
    c1        r18       1
    c1        r20       1
    c1        r22       1
    c1        r64       1
    c1        r66       1
    c1        r68       1
    c1        r70       1
    c1        r78       1
    c1        r80       1
    c2        Obj       1
    c2        r0        1
    c2        r3        1
    c2        r4        1
    c2        r7        1
    c2        r16       1
    c2        r19       1
    c2        r20       1
    c2        r23       1
    c2        r64       1
    c2        r67       1
    c2        r68       1
    c2        r71       1
    c2        r78       1
    c2        r80       1
    c3        Obj       1
    c3        r0        1
    c3        r1        1
    c3        r8        1
    c3        r9        1
    c3        r16       1
    c3        r17       1
    c3        r24       1
    c3        r25       1
    c3        r64       1
    c3        r65       1
    c3        r72       1
    c3        r73       1
    c3        r78       1
    c3        r79       1
    c4        Obj       1
    c4        r0        1
    c4        r2        1
    c4        r8        1
    c4        r10       1
    c4        r16       1
    c4        r18       1
    c4        r24       1
    c4        r26       1
    c4        r64       1
    c4        r66       1
    c4        r72       1
    c4        r74       1
    c4        r78       1
    c5        Obj       1
    c5        r0        1
    c5        r3        1
    c5        r8        1
    c5        r11       1
    c5        r16       1
    c5        r19       1
    c5        r24       1
    c5        r27       1
    c5        r64       1
    c5        r67       1
    c5        r72       1
    c5        r75       1
    c5        r78       1
    c5        r82       1
    c6        Obj       1
    c6        r0        1
    c6        r1        1
    c6        r12       1
    c6        r13       1
    c6        r16       1
    c6        r17       1
    c6        r28       1
    c6        r29       1
    c6        r64       1
    c6        r65       1
    c6        r76       1
    c6        r77       1
    c6        r78       1
    c6        r79       1
    c7        Obj       1
    c7        r0        1
    c7        r2        1
    c7        r12       1
    c7        r14       1
    c7        r16       1
    c7        r18       1
    c7        r28       1
    c7        r30       1
    c7        r64       1
    c7        r66       1
    c7        r76       1
    c7        r78       1
    c8        Obj       1
    c8        r0        1
    c8        r3        1
    c8        r12       1
    c8        r15       1
    c8        r16       1
    c8        r19       1
    c8        r28       1
    c8        r31       1
    c8        r64       1
    c8        r67       1
    c8        r76       1
    c8        r78       1
    c9        Obj       1
    c9        r0        1
    c9        r1        1
    c9        r4        1
    c9        r5        1
    c9        r32       1
    c9        r33       1
    c9        r36       1
    c9        r37       1
    c9        r64       1
    c9        r65       1
    c9        r68       1
    c9        r69       1
    c9        r83       1
    c9        r84       1
    c9        r85       1
    c10       Obj       1
    c10       r0        1
    c10       r2        1
    c10       r4        1
    c10       r6        1
    c10       r32       1
    c10       r34       1
    c10       r36       1
    c10       r38       1
    c10       r64       1
    c10       r66       1
    c10       r68       1
    c10       r70       1
    c10       r83       1
    c10       r85       1
    c10       r86       1
    c11       Obj       1
    c11       r0        1
    c11       r3        1
    c11       r4        1
    c11       r7        1
    c11       r32       1
    c11       r35       1
    c11       r36       1
    c11       r39       1
    c11       r64       1
    c11       r67       1
    c11       r68       1
    c11       r71       1
    c11       r83       1
    c11       r85       1
    c12       Obj       1
    c12       r0        1
    c12       r1        1
    c12       r8        1
    c12       r9        1
    c12       r32       1
    c12       r33       1
    c12       r40       1
    c12       r41       1
    c12       r64       1
    c12       r65       1
    c12       r72       1
    c12       r73       1
    c12       r83       1
    c12       r84       1
    c13       Obj       1
    c13       r0        1
    c13       r2        1
    c13       r8        1
    c13       r10       1
    c13       r32       1
    c13       r34       1
    c13       r40       1
    c13       r42       1
    c13       r64       1
    c13       r66       1
    c13       r72       1
    c13       r74       1
    c13       r83       1
    c14       Obj       1
    c14       r0        1
    c14       r3        1
    c14       r8        1
    c14       r11       1
    c14       r32       1
    c14       r35       1
    c14       r40       1
    c14       r43       1
    c14       r64       1
    c14       r67       1
    c14       r72       1
    c14       r75       1
    c14       r83       1
    c15       Obj       1
    c15       r0        1
    c15       r1        1
    c15       r12       1
    c15       r13       1
    c15       r32       1
    c15       r33       1
    c15       r44       1
    c15       r45       1
    c15       r64       1
    c15       r65       1
    c15       r76       1
    c15       r77       1
    c15       r83       1
    c15       r84       1
    c15       r87       1
    c16       Obj       1
    c16       r0        1
    c16       r2        1
    c16       r12       1
    c16       r14       1
    c16       r32       1
    c16       r34       1
    c16       r44       1
    c16       r46       1
    c16       r64       1
    c16       r66       1
    c16       r76       1
    c16       r83       1
    c17       Obj       1
    c17       r0        1
    c17       r3        1
    c17       r12       1
    c17       r15       1
    c17       r32       1
    c17       r35       1
    c17       r44       1
    c17       r47       1
    c17       r64       1
    c17       r67       1
    c17       r76       1
    c17       r83       1
    c18       Obj       1
    c18       r0        1
    c18       r1        1
    c18       r4        1
    c18       r5        1
    c18       r48       1
    c18       r49       1
    c18       r52       1
    c18       r53       1
    c18       r64       1
    c18       r65       1
    c18       r68       1
    c18       r69       1
    c18       r88       1
    c18       r89       1
    c18       r90       1
    c19       Obj       1
    c19       r0        1
    c19       r2        1
    c19       r4        1
    c19       r6        1
    c19       r48       1
    c19       r50       1
    c19       r52       1
    c19       r54       1
    c19       r64       1
    c19       r66       1
    c19       r68       1
    c19       r70       1
    c19       r88       1
    c19       r90       1
    c20       Obj       1
    c20       r0        1
    c20       r3        1
    c20       r4        1
    c20       r7        1
    c20       r48       1
    c20       r51       1
    c20       r52       1
    c20       r55       1
    c20       r64       1
    c20       r67       1
    c20       r68       1
    c20       r71       1
    c20       r88       1
    c20       r90       1
    c20       r91       1
    c21       Obj       1
    c21       r0        1
    c21       r1        1
    c21       r8        1
    c21       r9        1
    c21       r48       1
    c21       r49       1
    c21       r56       1
    c21       r57       1
    c21       r64       1
    c21       r65       1
    c21       r72       1
    c21       r73       1
    c21       r88       1
    c21       r89       1
    c22       Obj       1
    c22       r0        1
    c22       r2        1
    c22       r8        1
    c22       r10       1
    c22       r48       1
    c22       r50       1
    c22       r56       1
    c22       r58       1
    c22       r64       1
    c22       r66       1
    c22       r72       1
    c22       r74       1
    c22       r88       1
    c23       Obj       1
    c23       r0        1
    c23       r3        1
    c23       r8        1
    c23       r11       1
    c23       r48       1
    c23       r51       1
    c23       r56       1
    c23       r59       1
    c23       r64       1
    c23       r67       1
    c23       r72       1
    c23       r75       1
    c23       r88       1
    c24       Obj       1
    c24       r0        1
    c24       r1        1
    c24       r12       1
    c24       r13       1
    c24       r48       1
    c24       r49       1
    c24       r60       1
    c24       r61       1
    c24       r64       1
    c24       r65       1
    c24       r76       1
    c24       r77       1
    c24       r88       1
    c24       r89       1
    c25       Obj       1
    c25       r0        1
    c25       r2        1
    c25       r12       1
    c25       r14       1
    c25       r48       1
    c25       r50       1
    c25       r60       1
    c25       r62       1
    c25       r64       1
    c25       r66       1
    c25       r76       1
    c25       r88       1
    c25       r92       1
    c26       Obj       1
    c26       r0        1
    c26       r3        1
    c26       r12       1
    c26       r15       1
    c26       r48       1
    c26       r51       1
    c26       r60       1
    c26       r63       1
    c26       r64       1
    c26       r67       1
    c26       r76       1
    c26       r88       1
    c27       Obj       1
    c27       r0        1
    c27       r1        1
    c27       r4        1
    c27       r5        1
    c27       r16       1
    c27       r17       1
    c27       r20       1
    c27       r21       1
    c27       r93       1
    c27       r94       1
    c27       r97       1
    c27       r98       1
    c27       r103      1
    c27       r104      1
    c27       r105      1
    c28       Obj       1
    c28       r0        1
    c28       r2        1
    c28       r4        1
    c28       r6        1
    c28       r16       1
    c28       r18       1
    c28       r20       1
    c28       r22       1
    c28       r93       1
    c28       r95       1
    c28       r97       1
    c28       r103      1
    c28       r105      1
    c29       Obj       1
    c29       r0        1
    c29       r3        1
    c29       r4        1
    c29       r7        1
    c29       r16       1
    c29       r19       1
    c29       r20       1
    c29       r23       1
    c29       r93       1
    c29       r96       1
    c29       r97       1
    c29       r103      1
    c29       r105      1
    c30       Obj       1
    c30       r0        1
    c30       r1        1
    c30       r8        1
    c30       r9        1
    c30       r16       1
    c30       r17       1
    c30       r24       1
    c30       r25       1
    c30       r93       1
    c30       r94       1
    c30       r99       1
    c30       r100      1
    c30       r103      1
    c30       r104      1
    c30       r106      1
    c31       Obj       1
    c31       r0        1
    c31       r2        1
    c31       r8        1
    c31       r10       1
    c31       r16       1
    c31       r18       1
    c31       r24       1
    c31       r26       1
    c31       r93       1
    c31       r95       1
    c31       r99       1
    c31       r103      1
    c32       Obj       1
    c32       r0        1
    c32       r3        1
    c32       r8        1
    c32       r11       1
    c32       r16       1
    c32       r19       1
    c32       r24       1
    c32       r27       1
    c32       r93       1
    c32       r96       1
    c32       r99       1
    c32       r103      1
    c33       Obj       1
    c33       r0        1
    c33       r1        1
    c33       r12       1
    c33       r13       1
    c33       r16       1
    c33       r17       1
    c33       r28       1
    c33       r29       1
    c33       r93       1
    c33       r94       1
    c33       r101      1
    c33       r102      1
    c33       r103      1
    c33       r104      1
    c34       Obj       1
    c34       r0        1
    c34       r2        1
    c34       r12       1
    c34       r14       1
    c34       r16       1
    c34       r18       1
    c34       r28       1
    c34       r30       1
    c34       r93       1
    c34       r95       1
    c34       r101      1
    c34       r103      1
    c35       Obj       1
    c35       r0        1
    c35       r3        1
    c35       r12       1
    c35       r15       1
    c35       r16       1
    c35       r19       1
    c35       r28       1
    c35       r31       1
    c35       r93       1
    c35       r96       1
    c35       r101      1
    c35       r103      1
    c35       r107      1
    c36       Obj       1
    c36       r0        1
    c36       r1        1
    c36       r4        1
    c36       r5        1
    c36       r32       1
    c36       r33       1
    c36       r36       1
    c36       r37       1
    c36       r93       1
    c36       r94       1
    c36       r97       1
    c36       r98       1
    c36       r108      1
    c36       r109      1
    c36       r110      1
    c37       Obj       1
    c37       r0        1
    c37       r2        1
    c37       r4        1
    c37       r6        1
    c37       r32       1
    c37       r34       1
    c37       r36       1
    c37       r38       1
    c37       r93       1
    c37       r95       1
    c37       r97       1
    c37       r108      1
    c37       r110      1
    c38       Obj       1
    c38       r0        1
    c38       r3        1
    c38       r4        1
    c38       r7        1
    c38       r32       1
    c38       r35       1
    c38       r36       1
    c38       r39       1
    c38       r93       1
    c38       r96       1
    c38       r97       1
    c38       r108      1
    c38       r110      1
    c39       Obj       1
    c39       r0        1
    c39       r1        1
    c39       r8        1
    c39       r9        1
    c39       r32       1
    c39       r33       1
    c39       r40       1
    c39       r41       1
    c39       r93       1
    c39       r94       1
    c39       r99       1
    c39       r100      1
    c39       r108      1
    c39       r109      1
    c40       Obj       1
    c40       r0        1
    c40       r2        1
    c40       r8        1
    c40       r10       1
    c40       r32       1
    c40       r34       1
    c40       r40       1
    c40       r42       1
    c40       r93       1
    c40       r95       1
    c40       r99       1
    c40       r108      1
    c40       r111      1
    c41       Obj       1
    c41       r0        1
    c41       r3        1
    c41       r8        1
    c41       r11       1
    c41       r32       1
    c41       r35       1
    c41       r40       1
    c41       r43       1
    c41       r93       1
    c41       r96       1
    c41       r99       1
    c41       r108      1
    c42       Obj       1
    c42       r0        1
    c42       r1        1
    c42       r12       1
    c42       r13       1
    c42       r32       1
    c42       r33       1
    c42       r44       1
    c42       r45       1
    c42       r93       1
    c42       r94       1
    c42       r101      1
    c42       r102      1
    c42       r108      1
    c42       r109      1
    c43       Obj       1
    c43       r0        1
    c43       r2        1
    c43       r12       1
    c43       r14       1
    c43       r32       1
    c43       r34       1
    c43       r44       1
    c43       r46       1
    c43       r93       1
    c43       r95       1
    c43       r101      1
    c43       r108      1
    c44       Obj       1
    c44       r0        1
    c44       r3        1
    c44       r12       1
    c44       r15       1
    c44       r32       1
    c44       r35       1
    c44       r44       1
    c44       r47       1
    c44       r93       1
    c44       r96       1
    c44       r101      1
    c44       r108      1
    c45       Obj       1
    c45       r0        1
    c45       r1        1
    c45       r4        1
    c45       r5        1
    c45       r48       1
    c45       r49       1
    c45       r52       1
    c45       r53       1
    c45       r93       1
    c45       r94       1
    c45       r97       1
    c45       r98       1
    c45       r112      1
    c45       r113      1
    c45       r114      1
    c45       r115      1
    c46       Obj       1
    c46       r0        1
    c46       r2        1
    c46       r4        1
    c46       r6        1
    c46       r48       1
    c46       r50       1
    c46       r52       1
    c46       r54       1
    c46       r93       1
    c46       r95       1
    c46       r97       1
    c46       r112      1
    c46       r114      1
    c47       Obj       1
    c47       r0        1
    c47       r3        1
    c47       r4        1
    c47       r7        1
    c47       r48       1
    c47       r51       1
    c47       r52       1
    c47       r55       1
    c47       r93       1
    c47       r96       1
    c47       r97       1
    c47       r112      1
    c47       r114      1
    c48       Obj       1
    c48       r0        1
    c48       r1        1
    c48       r8        1
    c48       r9        1
    c48       r48       1
    c48       r49       1
    c48       r56       1
    c48       r57       1
    c48       r93       1
    c48       r94       1
    c48       r99       1
    c48       r100      1
    c48       r112      1
    c48       r113      1
    c49       Obj       1
    c49       r0        1
    c49       r2        1
    c49       r8        1
    c49       r10       1
    c49       r48       1
    c49       r50       1
    c49       r56       1
    c49       r58       1
    c49       r93       1
    c49       r95       1
    c49       r99       1
    c49       r112      1
    c50       Obj       1
    c50       r0        1
    c50       r3        1
    c50       r8        1
    c50       r11       1
    c50       r48       1
    c50       r51       1
    c50       r56       1
    c50       r59       1
    c50       r93       1
    c50       r96       1
    c50       r99       1
    c50       r112      1
    c50       r116      1
    c51       Obj       1
    c51       r0        1
    c51       r1        1
    c51       r12       1
    c51       r13       1
    c51       r48       1
    c51       r49       1
    c51       r60       1
    c51       r61       1
    c51       r93       1
    c51       r94       1
    c51       r101      1
    c51       r102      1
    c51       r112      1
    c51       r113      1
    c52       Obj       1
    c52       r0        1
    c52       r2        1
    c52       r12       1
    c52       r14       1
    c52       r48       1
    c52       r50       1
    c52       r60       1
    c52       r62       1
    c52       r93       1
    c52       r95       1
    c52       r101      1
    c52       r112      1
    c53       Obj       1
    c53       r0        1
    c53       r3        1
    c53       r12       1
    c53       r15       1
    c53       r48       1
    c53       r51       1
    c53       r60       1
    c53       r63       1
    c53       r93       1
    c53       r96       1
    c53       r101      1
    c53       r112      1
    c54       Obj       1
    c54       r0        1
    c54       r1        1
    c54       r4        1
    c54       r5        1
    c54       r16       1
    c54       r17       1
    c54       r20       1
    c54       r21       1
    c54       r117      1
    c54       r118      1
    c54       r121      1
    c54       r122      1
    c54       r127      1
    c54       r128      1
    c54       r129      1
    c55       Obj       1
    c55       r0        1
    c55       r2        1
    c55       r4        1
    c55       r6        1
    c55       r16       1
    c55       r18       1
    c55       r20       1
    c55       r22       1
    c55       r117      1
    c55       r119      1
    c55       r121      1
    c55       r127      1
    c55       r129      1
    c55       r130      1
    c56       Obj       1
    c56       r0        1
    c56       r3        1
    c56       r4        1
    c56       r7        1
    c56       r16       1
    c56       r19       1
    c56       r20       1
    c56       r23       1
    c56       r117      1
    c56       r120      1
    c56       r121      1
    c56       r127      1
    c56       r129      1
    c57       Obj       1
    c57       r0        1
    c57       r1        1
    c57       r8        1
    c57       r9        1
    c57       r16       1
    c57       r17       1
    c57       r24       1
    c57       r25       1
    c57       r117      1
    c57       r118      1
    c57       r123      1
    c57       r124      1
    c57       r127      1
    c57       r128      1
    c58       Obj       1
    c58       r0        1
    c58       r2        1
    c58       r8        1
    c58       r10       1
    c58       r16       1
    c58       r18       1
    c58       r24       1
    c58       r26       1
    c58       r117      1
    c58       r119      1
    c58       r123      1
    c58       r127      1
    c59       Obj       1
    c59       r0        1
    c59       r3        1
    c59       r8        1
    c59       r11       1
    c59       r16       1
    c59       r19       1
    c59       r24       1
    c59       r27       1
    c59       r117      1
    c59       r120      1
    c59       r123      1
    c59       r127      1
    c60       Obj       1
    c60       r0        1
    c60       r1        1
    c60       r12       1
    c60       r13       1
    c60       r16       1
    c60       r17       1
    c60       r28       1
    c60       r29       1
    c60       r117      1
    c60       r118      1
    c60       r125      1
    c60       r126      1
    c60       r127      1
    c60       r128      1
    c60       r131      1
    c61       Obj       1
    c61       r0        1
    c61       r2        1
    c61       r12       1
    c61       r14       1
    c61       r16       1
    c61       r18       1
    c61       r28       1
    c61       r30       1
    c61       r117      1
    c61       r119      1
    c61       r125      1
    c61       r127      1
    c62       Obj       1
    c62       r0        1
    c62       r3        1
    c62       r12       1
    c62       r15       1
    c62       r16       1
    c62       r19       1
    c62       r28       1
    c62       r31       1
    c62       r117      1
    c62       r120      1
    c62       r125      1
    c62       r127      1
    c63       Obj       1
    c63       r0        1
    c63       r1        1
    c63       r4        1
    c63       r5        1
    c63       r32       1
    c63       r33       1
    c63       r36       1
    c63       r37       1
    c63       r117      1
    c63       r118      1
    c63       r121      1
    c63       r122      1
    c63       r132      1
    c64       Obj       1
    c64       r0        1
    c64       r2        1
    c64       r4        1
    c64       r6        1
    c64       r32       1
    c64       r34       1
    c64       r36       1
    c64       r38       1
    c64       r117      1
    c64       r119      1
    c64       r121      1
    c64       r132      1
    c65       Obj       1
    c65       r0        1
    c65       r3        1
    c65       r4        1
    c65       r7        1
    c65       r32       1
    c65       r35       1
    c65       r36       1
    c65       r39       1
    c65       r117      1
    c65       r120      1
    c65       r121      1
    c65       r132      1
    c65       r133      1
    c66       Obj       1
    c66       r0        1
    c66       r1        1
    c66       r8        1
    c66       r9        1
    c66       r32       1
    c66       r33       1
    c66       r40       1
    c66       r41       1
    c66       r117      1
    c66       r118      1
    c66       r123      1
    c66       r124      1
    c66       r132      1
    c67       Obj       1
    c67       r0        1
    c67       r2        1
    c67       r8        1
    c67       r10       1
    c67       r32       1
    c67       r34       1
    c67       r40       1
    c67       r42       1
    c67       r117      1
    c67       r119      1
    c67       r123      1
    c67       r132      1
    c68       Obj       1
    c68       r0        1
    c68       r3        1
    c68       r8        1
    c68       r11       1
    c68       r32       1
    c68       r35       1
    c68       r40       1
    c68       r43       1
    c68       r117      1
    c68       r120      1
    c68       r123      1
    c68       r132      1
    c69       Obj       1
    c69       r0        1
    c69       r1        1
    c69       r12       1
    c69       r13       1
    c69       r32       1
    c69       r33       1
    c69       r44       1
    c69       r45       1
    c69       r117      1
    c69       r118      1
    c69       r125      1
    c69       r126      1
    c69       r132      1
    c70       Obj       1
    c70       r0        1
    c70       r2        1
    c70       r12       1
    c70       r14       1
    c70       r32       1
    c70       r34       1
    c70       r44       1
    c70       r46       1
    c70       r117      1
    c70       r119      1
    c70       r125      1
    c70       r132      1
    c70       r134      1
    c71       Obj       1
    c71       r0        1
    c71       r3        1
    c71       r12       1
    c71       r15       1
    c71       r32       1
    c71       r35       1
    c71       r44       1
    c71       r47       1
    c71       r117      1
    c71       r120      1
    c71       r125      1
    c71       r132      1
    c72       Obj       1
    c72       r0        1
    c72       r1        1
    c72       r4        1
    c72       r5        1
    c72       r48       1
    c72       r49       1
    c72       r52       1
    c72       r53       1
    c72       r117      1
    c72       r118      1
    c72       r121      1
    c72       r122      1
    c72       r135      1
    c73       Obj       1
    c73       r0        1
    c73       r2        1
    c73       r4        1
    c73       r6        1
    c73       r48       1
    c73       r50       1
    c73       r52       1
    c73       r54       1
    c73       r117      1
    c73       r119      1
    c73       r121      1
    c73       r135      1
    c74       Obj       1
    c74       r0        1
    c74       r3        1
    c74       r4        1
    c74       r7        1
    c74       r48       1
    c74       r51       1
    c74       r52       1
    c74       r55       1
    c74       r117      1
    c74       r120      1
    c74       r121      1
    c74       r135      1
    c75       Obj       1
    c75       r0        1
    c75       r1        1
    c75       r8        1
    c75       r9        1
    c75       r48       1
    c75       r49       1
    c75       r56       1
    c75       r57       1
    c75       r117      1
    c75       r118      1
    c75       r123      1
    c75       r124      1
    c75       r135      1
    c75       r136      1
    c76       Obj       1
    c76       r0        1
    c76       r2        1
    c76       r8        1
    c76       r10       1
    c76       r48       1
    c76       r50       1
    c76       r56       1
    c76       r58       1
    c76       r117      1
    c76       r119      1
    c76       r123      1
    c76       r135      1
    c77       Obj       1
    c77       r0        1
    c77       r3        1
    c77       r8        1
    c77       r11       1
    c77       r48       1
    c77       r51       1
    c77       r56       1
    c77       r59       1
    c77       r117      1
    c77       r120      1
    c77       r123      1
    c77       r135      1
    c78       Obj       1
    c78       r0        1
    c78       r1        1
    c78       r12       1
    c78       r13       1
    c78       r48       1
    c78       r49       1
    c78       r60       1
    c78       r61       1
    c78       r117      1
    c78       r118      1
    c78       r125      1
    c78       r126      1
    c78       r135      1
    c79       Obj       1
    c79       r0        1
    c79       r2        1
    c79       r12       1
    c79       r14       1
    c79       r48       1
    c79       r50       1
    c79       r60       1
    c79       r62       1
    c79       r117      1
    c79       r119      1
    c79       r125      1
    c79       r135      1
    c80       Obj       1
    c80       r0        1
    c80       r3        1
    c80       r12       1
    c80       r15       1
    c80       r48       1
    c80       r51       1
    c80       r60       1
    c80       r63       1
    c80       r117      1
    c80       r120      1
    c80       r125      1
    c80       r135      1
    MARK0001  'MARKER'                 'INTEND'
RHS
    RHS_V     r0        1
    RHS_V     r1        1
    RHS_V     r2        1
    RHS_V     r3        1
    RHS_V     r4        1
    RHS_V     r5        1
    RHS_V     r6        1
    RHS_V     r7        1
    RHS_V     r8        1
    RHS_V     r9        1
    RHS_V     r10       1
    RHS_V     r11       1
    RHS_V     r12       1
    RHS_V     r13       1
    RHS_V     r14       1
    RHS_V     r15       1
    RHS_V     r16       1
    RHS_V     r17       1
    RHS_V     r18       1
    RHS_V     r19       1
    RHS_V     r20       1
    RHS_V     r21       1
    RHS_V     r22       1
    RHS_V     r23       1
    RHS_V     r24       1
    RHS_V     r25       1
    RHS_V     r26       1
    RHS_V     r27       1
    RHS_V     r28       1
    RHS_V     r29       1
    RHS_V     r30       1
    RHS_V     r31       1
    RHS_V     r32       1
    RHS_V     r33       1
    RHS_V     r34       1
    RHS_V     r35       1
    RHS_V     r36       1
    RHS_V     r37       1
    RHS_V     r38       1
    RHS_V     r39       1
    RHS_V     r40       1
    RHS_V     r41       1
    RHS_V     r42       1
    RHS_V     r43       1
    RHS_V     r44       1
    RHS_V     r45       1
    RHS_V     r46       1
    RHS_V     r47       1
    RHS_V     r48       1
    RHS_V     r49       1
    RHS_V     r50       1
    RHS_V     r51       1
    RHS_V     r52       1
    RHS_V     r53       1
    RHS_V     r54       1
    RHS_V     r55       1
    RHS_V     r56       1
    RHS_V     r57       1
    RHS_V     r58       1
    RHS_V     r59       1
    RHS_V     r60       1
    RHS_V     r61       1
    RHS_V     r62       1
    RHS_V     r63       1
    RHS_V     r64       1
    RHS_V     r65       1
    RHS_V     r66       1
    RHS_V     r67       1
    RHS_V     r68       1
    RHS_V     r69       1
    RHS_V     r70       1
    RHS_V     r71       1
    RHS_V     r72       1
    RHS_V     r73       1
    RHS_V     r74       1
    RHS_V     r75       1
    RHS_V     r76       1
    RHS_V     r77       1
    RHS_V     r78       1
    RHS_V     r79       1
    RHS_V     r80       1
    RHS_V     r81       1
    RHS_V     r82       1
    RHS_V     r83       1
    RHS_V     r84       1
    RHS_V     r85       1
    RHS_V     r86       1
    RHS_V     r87       1
    RHS_V     r88       1
    RHS_V     r89       1
    RHS_V     r90       1
    RHS_V     r91       1
    RHS_V     r92       1
    RHS_V     r93       1
    RHS_V     r94       1
    RHS_V     r95       1
    RHS_V     r96       1
    RHS_V     r97       1
    RHS_V     r98       1
    RHS_V     r99       1
    RHS_V     r100      1
    RHS_V     r101      1
    RHS_V     r102      1
    RHS_V     r103      1
    RHS_V     r104      1
    RHS_V     r105      1
    RHS_V     r106      1
    RHS_V     r107      1
    RHS_V     r108      1
    RHS_V     r109      1
    RHS_V     r110      1
    RHS_V     r111      1
    RHS_V     r112      1
    RHS_V     r113      1
    RHS_V     r114      1
    RHS_V     r115      1
    RHS_V     r116      1
    RHS_V     r117      1
    RHS_V     r118      1
    RHS_V     r119      1
    RHS_V     r120      1
    RHS_V     r121      1
    RHS_V     r122      1
    RHS_V     r123      1
    RHS_V     r124      1
    RHS_V     r125      1
    RHS_V     r126      1
    RHS_V     r127      1
    RHS_V     r128      1
    RHS_V     r129      1
    RHS_V     r130      1
    RHS_V     r131      1
    RHS_V     r132      1
    RHS_V     r133      1
    RHS_V     r134      1
    RHS_V     r135      1
    RHS_V     r136      1
BOUNDS
 BV BOUND     c0      
 BV BOUND     c1      
 BV BOUND     c2      
 BV BOUND     c3      
 BV BOUND     c4      
 BV BOUND     c5      
 BV BOUND     c6      
 BV BOUND     c7      
 BV BOUND     c8      
 BV BOUND     c9      
 BV BOUND     c10     
 BV BOUND     c11     
 BV BOUND     c12     
 BV BOUND     c13     
 BV BOUND     c14     
 BV BOUND     c15     
 BV BOUND     c16     
 BV BOUND     c17     
 BV BOUND     c18     
 BV BOUND     c19     
 BV BOUND     c20     
 BV BOUND     c21     
 BV BOUND     c22     
 BV BOUND     c23     
 BV BOUND     c24     
 BV BOUND     c25     
 BV BOUND     c26     
 BV BOUND     c27     
 BV BOUND     c28     
 BV BOUND     c29     
 BV BOUND     c30     
 BV BOUND     c31     
 BV BOUND     c32     
 BV BOUND     c33     
 BV BOUND     c34     
 BV BOUND     c35     
 BV BOUND     c36     
 BV BOUND     c37     
 BV BOUND     c38     
 BV BOUND     c39     
 BV BOUND     c40     
 BV BOUND     c41     
 BV BOUND     c42     
 BV BOUND     c43     
 BV BOUND     c44     
 BV BOUND     c45     
 BV BOUND     c46     
 BV BOUND     c47     
 BV BOUND     c48     
 BV BOUND     c49     
 BV BOUND     c50     
 BV BOUND     c51     
 BV BOUND     c52     
 BV BOUND     c53     
 BV BOUND     c54     
 BV BOUND     c55     
 BV BOUND     c56     
 BV BOUND     c57     
 BV BOUND     c58     
 BV BOUND     c59     
 BV BOUND     c60     
 BV BOUND     c61     
 BV BOUND     c62     
 BV BOUND     c63     
 BV BOUND     c64     
 BV BOUND     c65     
 BV BOUND     c66     
 BV BOUND     c67     
 BV BOUND     c68     
 BV BOUND     c69     
 BV BOUND     c70     
 BV BOUND     c71     
 BV BOUND     c72     
 BV BOUND     c73     
 BV BOUND     c74     
 BV BOUND     c75     
 BV BOUND     c76     
 BV BOUND     c77     
 BV BOUND     c78     
 BV BOUND     c79     
 BV BOUND     c80     
ENDATA
