tier3-numpy/artifacts/clique_cover/kstar_n4_set_cover.sol
# K* tensor-product basis cover witness, n=4
# objective = 29.0
# n_bases   = 29
XXXX
XXYY
XXYZ
XYXY
XYYX
XYZX
XZXZ
XZYY
XZZX
XZZY
YXXZ
YXYX
YXZZ
YYXX
YYYY
YZXX
YZYZ
YZZX
ZXXY
ZXZX
ZXZY
ZYXX
ZYXZ
ZYYZ
ZYZY
ZYZZ
ZZXY
ZZYX
ZZZZ
